Selected objective sense:  MINIMIZE
Selected objective  name:  OBJ
Selected RHS        name:  RHS1
Selected bound      name:  BND1
CPXPARAM_Preprocessing_Presolve                  0
CPXPARAM_LPMethod                                4
CPXPARAM_Threads                                 1
CPXPARAM_SolutionType                            2
CPXPARAM_TimeLimit                               3600
Tried aggregator 0 times.
Reduced presolve eliminated 298 rows and 298 columns.
Reduced LP has 32566 rows, 253942 columns, and 21883449 nonzeros.
Presolve time = 4.92 sec. (2319.30 ticks)
Parallel mode: none, using 1 thread for barrier
Number of nonzeros in lower triangle of A*A' = 2944332
Using Approximate Minimum Degree ordering
Total time for automatic ordering = 1.58 sec. (3030.61 ticks)
Summary statistics for Cholesky factor:
  Rows in Factor            = 32566
  Integer space required    = 2965426
  Total non-zeros in factor = 2979454
  Total FP ops to factor    = 278375834
 Itn      Primal Obj        Dual Obj  Prim Inf Upper Inf  Dual Inf Inf Ratio
   0   1.5621912e+10  -8.8587546e+08  6.54e+10  0.00e+00  9.23e+07  1.00e+00
   1   1.8712084e+09  -2.9910179e+08  7.37e+09  1.40e-10  3.87e+07  6.51e-05
   2   1.6448468e+08  -1.4960813e+08  8.83e+08  1.17e-10  1.37e+07  1.78e-04
   3   1.4353043e+07  -5.9898867e+07  8.43e+07  7.26e-11  5.40e+06  4.83e-04
   4   3.4814678e+06  -2.2149114e+07  2.11e+07  3.84e-10  1.99e+06  1.66e-03
   5   9.2410504e+05  -7.7765446e+06  4.93e+06  1.83e-10  7.06e+05  6.60e-03
   6   8.1136524e+05  -6.2009388e+06  4.15e+06  1.26e-10  5.67e+05  8.33e-03
   7   7.9273878e+05  -3.3870790e+06  4.01e+06  1.51e-10  3.19e+05  1.06e-02
   8   3.4637742e+05  -1.0128615e+06  8.43e+05  1.02e-10  1.09e+05  3.19e-02
   9   2.5075928e+05  -2.6555650e+04  1.72e+05  3.47e-10  2.23e+04  2.40e-01
  10   2.2714546e+05   1.7313690e+05  4.64e+03  3.01e-10  4.71e+03  1.22e+00
  11   2.2702028e+05   1.7406634e+05  4.58e+03  1.07e-10  4.61e+03  1.25e+00
  12   2.2643821e+05   2.1196830e+05  2.59e+03  2.06e-10  1.22e+03  5.19e+00
  13   2.2590674e+05   2.1884124e+05  1.89e+03  1.25e-10  5.52e+02  1.61e+01
  14   2.2565452e+05   2.2112707e+05  1.62e+03  1.72e-10  3.13e+02  3.31e+01
  15   2.2545270e+05   2.2131020e+05  1.44e+03  4.13e-10  2.93e+02  3.58e+01
  16   2.2500475e+05   2.2264646e+05  1.01e+03  3.77e-10  1.44e+02  8.55e+01
  17   2.2488516e+05   2.2295215e+05  9.02e+02  1.59e-10  1.08e+02  1.17e+02
  18   2.2471705e+05   2.2325274e+05  7.59e+02  1.60e-10  7.11e+01  1.83e+02
  19   2.2458426e+05   2.2340896e+05  6.41e+02  3.92e-10  5.28e+01  2.47e+02
  20   2.2454000e+05   2.2355844e+05  6.03e+02  2.15e-10  3.45e+01  3.73e+02
  21   2.2452156e+05   2.2365782e+05  5.88e+02  2.38e-10  2.08e+01  5.78e+02
  22   2.2443230e+05   2.2368204e+05  5.16e+02  1.99e-10  1.72e+01  6.62e+02
  23   2.2430933e+05   2.2373322e+05  4.12e+02  1.62e-10  1.08e+01  9.12e+02
  24   2.2429102e+05   2.2377312e+05  3.96e+02  1.95e-10  6.80e+00  1.24e+03
  25   2.2427142e+05   2.2379588e+05  3.79e+02  1.93e-10  4.20e+00  1.59e+03
  26   2.2425652e+05   2.2380013e+05  3.66e+02  1.80e-10  3.70e+00  1.68e+03
  27   2.2416680e+05   2.2380446e+05  2.87e+02  2.22e-10  3.31e+00  1.78e+03
  28   2.2413339e+05   2.2382132e+05  2.56e+02  1.64e-10  2.17e+00  2.22e+03
  29   2.2412484e+05   2.2383394e+05  2.48e+02  1.75e-10  1.40e+00  2.73e+03
  30   2.2410563e+05   2.2383497e+05  2.31e+02  2.46e-10  1.33e+00  2.78e+03
  31   2.2409972e+05   2.2384031e+05  2.25e+02  2.36e-10  1.05e+00  3.08e+03
  32   2.2409279e+05   2.2384561e+05  2.19e+02  2.09e-10  7.79e-01  3.44e+03
  33   2.2408382e+05   2.2384621e+05  2.10e+02  4.42e-10  7.51e-01  3.48e+03
  34   2.2406873e+05   2.2384674e+05  1.96e+02  2.28e-10  7.29e-01  3.52e+03
  35   2.2405308e+05   2.2385052e+05  1.80e+02  3.70e-10  5.92e-01  3.83e+03
  36   2.2405150e+05   2.2385308e+05  1.79e+02  3.48e-10  5.07e-01  4.08e+03
  37   2.2404992e+05   2.2385339e+05  1.77e+02  2.87e-10  4.97e-01  4.12e+03
  38   2.2403813e+05   2.2385730e+05  1.66e+02  4.89e-10  3.62e-01  4.62e+03
  39   2.2403610e+05   2.2385989e+05  1.64e+02  4.45e-10  2.74e-01  5.08e+03
  40   2.2403561e+05   2.2386035e+05  1.63e+02  3.10e-10  2.43e-01  5.26e+03
  41   2.2403541e+05   2.2386066e+05  1.63e+02  3.00e-10  2.34e-01  5.31e+03
  42   2.2403526e+05   2.2386085e+05  1.63e+02  4.36e-10  2.29e-01  5.34e+03
  43   2.2403416e+05   2.2386171e+05  1.62e+02  3.87e-10  1.95e-01  5.56e+03
  44   2.2403298e+05   2.2386307e+05  1.61e+02  3.63e-10  1.46e-01  5.90e+03
  45   2.2401301e+05   2.2386424e+05  1.41e+02  3.34e-10  1.21e-01  6.27e+03
  46   2.2401245e+05   2.2386483e+05  1.41e+02  2.45e-10  1.07e-01  6.47e+03
  47   2.2401182e+05   2.2386604e+05  1.40e+02  4.56e-10  7.76e-02  6.92e+03
  48   2.2399742e+05   2.2386661e+05  1.26e+02  5.14e-10  6.89e-02  7.22e+03
  49   2.2399571e+05   2.2386800e+05  1.24e+02  3.01e-10  4.43e-02  7.94e+03
  50   2.2399508e+05   2.2386852e+05  1.23e+02  3.68e-10  3.47e-02  8.25e+03
  51   2.2398566e+05   2.2386883e+05  1.14e+02  5.47e-10  3.03e-02  8.46e+03
  52   2.2398353e+05   2.2386970e+05  1.12e+02  3.19e-10  1.94e-02  9.14e+03
  53   2.2398116e+05   2.2387023e+05  1.10e+02  6.10e-10  1.26e-02  9.64e+03
  54   2.2397794e+05   2.2387072e+05  1.06e+02  7.10e-10  7.32e-03  1.01e+04
  55   2.2397473e+05   2.2387084e+05  1.03e+02  4.72e-10  6.37e-03  1.03e+04
  56   2.2396453e+05   2.2387182e+05  9.26e+01  5.46e-10  4.67e-03  1.19e+04
  57   2.2395821e+05   2.2387234e+05  8.62e+01  3.60e-10  1.79e-03  1.25e+04
  58   2.2395706e+05   2.2387249e+05  8.51e+01  3.53e-10  1.49e-03  1.28e+04
  59   2.2395402e+05   2.2387258e+05  8.20e+01  5.11e-10  1.31e-03  1.29e+04
  60   2.2394664e+05   2.2387286e+05  7.45e+01  3.63e-10  9.10e-04  1.35e+04
  61   2.2393494e+05   2.2387354e+05  6.25e+01  3.03e-10  3.80e-04  1.53e+04
  62   2.2393459e+05   2.2387366e+05  6.21e+01  3.18e-10  3.46e-04  1.57e+04
  63   2.2393447e+05   2.2387368e+05  6.20e+01  6.35e-10  3.42e-04  1.57e+04
  64   2.2392801e+05   2.2387433e+05  5.53e+01  6.01e-10  1.28e-04  1.86e+04
  65   2.2392567e+05   2.2387446e+05  5.28e+01  5.20e-10  1.06e-04  1.93e+04
  66   2.2391271e+05   2.2387487e+05  3.92e+01  6.48e-10  5.26e-05  2.16e+04
  67   2.2391159e+05   2.2387507e+05  3.81e+01  5.84e-10  4.27e-05  2.34e+04
  68   2.2391112e+05   2.2387511e+05  3.75e+01  7.60e-10  4.04e-05  2.39e+04
  69   2.2391104e+05   2.2387563e+05  3.75e+01  3.05e-10  1.72e-05  3.02e+04
  70   2.2391062e+05   2.2387576e+05  3.70e+01  5.40e-10  9.88e-06  3.19e+04
  71   2.2390673e+05   2.2387581e+05  3.29e+01  4.39e-10  6.68e-06  3.28e+04
  72   2.2389589e+05   2.2387605e+05  2.12e+01  1.94e-10  1.79e-06  3.81e+04
  73   2.2389271e+05   2.2387634e+05  1.77e+01  1.70e-10  9.90e-07  4.87e+04
  74   2.2389165e+05   2.2387651e+05  1.65e+01  4.30e-10  6.03e-07  5.87e+04
  75   2.2389151e+05   2.2387652e+05  1.64e+01  2.49e-10  5.71e-07  5.98e+04
  76   2.2388889e+05   2.2387662e+05  1.35e+01  1.93e-10  3.67e-07  6.78e+04
  77   2.2388754e+05   2.2387672e+05  1.19e+01  1.77e-10  2.50e-07  7.77e+04
  78   2.2388718e+05   2.2387673e+05  1.15e+01  2.60e-10  2.33e-07  7.99e+04
  79   2.2388547e+05   2.2387677e+05  9.60e+00  1.88e-10  1.91e-07  8.61e+04
  80   2.2388460e+05   2.2387683e+05  8.61e+00  3.28e-10  1.53e-07  9.57e+04
  81   2.2388391e+05   2.2387690e+05  7.83e+00  2.96e-10  1.07e-07  1.13e+05
  82   2.2388353e+05   2.2387692e+05  7.39e+00  2.39e-10  9.25e-08  1.20e+05
  83   2.2388283e+05   2.2387697e+05  6.58e+00  3.84e-10  6.73e-08  1.37e+05
  84   2.2388173e+05   2.2387699e+05  5.32e+00  3.58e-10  5.64e-08  1.47e+05
  85   2.2388163e+05   2.2387703e+05  5.20e+00  3.62e-10  4.40e-08  1.69e+05
  86   2.2388160e+05   2.2387703e+05  5.16e+00  1.76e-10  4.24e-08  1.70e+05
  87   2.2388129e+05   2.2387706e+05  4.81e+00  1.97e-10  3.06e-08  1.97e+05
  88   2.2388046e+05   2.2387709e+05  3.85e+00  2.76e-10  1.98e-08  2.31e+05
  89   2.2388009e+05   2.2387710e+05  3.41e+00  1.64e-10  1.74e-08  2.40e+05
  90   2.2387933e+05   2.2387712e+05  2.52e+00  2.23e-10  1.28e-08  2.86e+05
  91   2.2387908e+05   2.2387715e+05  2.23e+00  3.14e-10  9.28e-09  3.44e+05
  92   2.2387890e+05   2.2387717e+05  2.01e+00  4.20e-10  6.85e-09  4.13e+05
  93   2.2387855e+05   2.2387718e+05  1.59e+00  4.03e-10  4.82e-09  4.78e+05
  94   2.2387832e+05   2.2387719e+05  1.31e+00  2.41e-10  3.99e-09  5.78e+05
  95   2.2387821e+05   2.2387720e+05  1.18e+00  1.59e-10  3.08e-09  6.32e+05
  96   2.2387803e+05   2.2387722e+05  9.67e-01  1.52e-10  2.04e-09  8.91e+05
  97   2.2387794e+05   2.2387722e+05  8.56e-01  2.01e-10  1.87e-09  1.00e+06
  98   2.2387776e+05   2.2387723e+05  6.28e-01  1.43e-10  1.17e-09  1.25e+06
  99   2.2387773e+05   2.2387723e+05  5.98e-01  1.68e-10  1.24e-09  1.30e+06
 100   2.2387760e+05   2.2387724e+05  4.38e-01  2.82e-10  1.60e-09  1.60e+06
 101   2.2387757e+05   2.2387724e+05  3.99e-01  2.61e-10  1.59e-09  1.84e+06
 102   2.2387753e+05   2.2387724e+05  3.51e-01  1.96e-10  1.42e-09  2.13e+06
 103   2.2387744e+05   2.2387725e+05  2.40e-01  1.46e-10  1.63e-09  2.62e+06
 104   2.2387741e+05   2.2387725e+05  2.01e-01  2.00e-10  1.31e-09  3.06e+06
 105   2.2387739e+05   2.2387725e+05  1.73e-01  1.98e-10  1.19e-09  4.17e+06
 106   2.2387737e+05   2.2387725e+05  1.46e-01  1.21e-10  1.18e-09  4.67e+06
 107   2.2387737e+05   2.2387725e+05  1.39e-01  1.71e-10  1.39e-09  5.36e+06
 108   2.2387736e+05   2.2387725e+05  1.26e-01  2.26e-10  1.02e-09  6.51e+06
 109   2.2387734e+05   2.2387725e+05  1.04e-01  1.95e-10  1.04e-09  7.63e+06
 110   2.2387731e+05   2.2387726e+05  5.69e-02  2.13e-10  2.53e-09  1.05e+07
 111   2.2387729e+05   2.2387726e+05  4.16e-02  1.48e-10  1.94e-09  1.47e+07
 112   2.2387729e+05   2.2387726e+05  3.87e-02  2.13e-10  1.70e-09  1.59e+07
 113   2.2387729e+05   2.2387726e+05  3.42e-02  1.57e-10  1.51e-09  1.90e+07
 114   2.2387728e+05   2.2387726e+05  2.68e-02  1.97e-10  1.53e-09  2.20e+07
 115   2.2387727e+05   2.2387726e+05  1.49e-02  1.14e-10  1.30e-09  3.02e+07
 116   2.2387727e+05   2.2387726e+05  1.43e-02  1.34e-10  1.42e-09  3.09e+07
 117   2.2387727e+05   2.2387726e+05  1.38e-02  4.13e-10  1.30e-09  3.69e+07
 118   2.2387727e+05   2.2387726e+05  7.82e-03  2.47e-10  1.24e-09  5.03e+07
 119   2.2387726e+05   2.2387726e+05  5.88e-03  1.95e-10  1.11e-09  6.14e+07
Barrier time = 291.90 sec. (582370.70 ticks)

Total time on 1 threads = 291.90 sec. (582370.70 ticks)
Solve time: 291.900918755
Barrier iterations: 119
